NAME : KROB99B
TYPE : PDTSP
DIMENSION : 99
EDGE_WEIGHT_TYPE : EUC_2D
NODE_COORD_SECTION
1 3140 1401
2 556 1056
3 3675 1522
4 1182 1853
5 3595 111
6 962 1895
7 3507 1851
8 2642 1269
9 3438 901
10 3858 1472
11 2937 1568
12 376 1018
13 839 1355
14 706 1925
15 749 920
16 298 615
17 694 552
18 387 190
19 2801 695
20 3133 1143
21 1517 266
22 1538 224
23 844 520
24 2639 1239
25 3123 217
26 2489 1520
27 3834 1827
28 3417 1808
29 2938 543
30 71 1323
31 3245 1828
32 731 1741
33 2312 1270
34 2426 1851
35 380 478
36 2310 635
37 2830 775
38 3829 513
39 3684 445
40 171 514
41 627 1261
42 1490 1123
43 61 81
44 422 542
45 2698 1221
46 2372 127
47 177 1390
48 3084 748
49 1213 910
50 3 1817
51 1782 995
52 3896 742
53 1829 812
54 1286 550
55 3017 108
56 2132 1432
57 2000 1110
58 3317 1966
59 1729 1498
60 2408 1747
61 3292 152
62 193 1210
63 782 1462
64 2503 352
65 1697 1924
66 3821 147
67 3370 791
68 3162 367
69 3938 516
70 2741 1583
71 2330 741
72 3918 1088
73 1794 1589
74 2929 485
75 3453 1998
76 896 705
77 399 850
78 2614 195
79 2800 653
80 2630 20
81 563 1513
82 1090 1652
83 2009 1163
84 3876 1165
85 3084 774
86 1526 1612
87 1612 328
88 1423 1322
89 3058 1276
90 3782 1865
91 347 252
92 3904 1444
93 2191 1579
94 3220 1454
95 468 319
96 3611 1968
97 3114 1629
98 3515 1892
99 3060 155
PICKUP_AND_DELIVERY_SECTION
1 0 0 0 0 0 0
2 0 0 0 0 77 0
3 0 0 0 0 0 90
4 0 0 0 0 0 50
5 0 0 0 0 25 0
6 0 0 0 0 30 0
7 0 0 0 0 0 70
8 0 0 0 0 0 73
9 0 0 0 0 39 0
10 0 0 0 0 0 98
11 0 0 0 0 0 94
12 0 0 0 0 0 81
13 0 0 0 0 86 0
14 0 0 0 0 84 0
15 0 0 0 0 0 47
16 0 0 0 0 0 40
17 0 0 0 0 0 41
18 0 0 0 0 0 95
19 0 0 0 0 0 55
20 0 0 0 0 85 0
21 0 0 0 0 65 0
22 0 0 0 0 87 0
23 0 0 0 0 0 43
24 0 0 0 0 0 29
25 0 0 0 0 0 5
26 0 0 0 0 0 33
27 0 0 0 0 75 0
28 0 0 0 0 37 0
29 0 0 0 0 24 0
30 0 0 0 0 0 6
31 0 0 0 0 0 97
32 0 0 0 0 76 0
33 0 0 0 0 26 0
34 0 0 0 0 0 56
35 0 0 0 0 0 44
36 0 0 0 0 0 79
37 0 0 0 0 0 28
38 0 0 0 0 0 69
39 0 0 0 0 0 9
40 0 0 0 0 16 0
41 0 0 0 0 17 0
42 0 0 0 0 0 49
43 0 0 0 0 23 0
44 0 0 0 0 35 0
45 0 0 0 0 0 92
46 0 0 0 0 64 0
47 0 0 0 0 15 0
48 0 0 0 0 0 52
49 0 0 0 0 42 0
50 0 0 0 0 4 0
51 0 0 0 0 0 53
52 0 0 0 0 48 0
53 0 0 0 0 51 0
54 0 0 0 0 59 0
55 0 0 0 0 19 0
56 0 0 0 0 34 0
57 0 0 0 0 71 0
58 0 0 0 0 0 99
59 0 0 0 0 0 54
60 0 0 0 0 93 0
61 0 0 0 0 0 74
62 0 0 0 0 0 78
63 0 0 0 0 82 0
64 0 0 0 0 0 46
65 0 0 0 0 0 21
66 0 0 0 0 0 89
67 0 0 0 0 72 0
68 0 0 0 0 80 0
69 0 0 0 0 38 0
70 0 0 0 0 7 0
71 0 0 0 0 0 57
72 0 0 0 0 0 67
73 0 0 0 0 8 0
74 0 0 0 0 61 0
75 0 0 0 0 0 27
76 0 0 0 0 0 32
77 0 0 0 0 0 2
78 0 0 0 0 62 0
79 0 0 0 0 36 0
80 0 0 0 0 0 68
81 0 0 0 0 12 0
82 0 0 0 0 0 63
83 0 0 0 0 0 96
84 0 0 0 0 0 14
85 0 0 0 0 0 20
86 0 0 0 0 0 13
87 0 0 0 0 0 22
88 0 0 0 0 0 91
89 0 0 0 0 66 0
90 0 0 0 0 3 0
91 0 0 0 0 88 0
92 0 0 0 0 45 0
93 0 0 0 0 0 60
94 0 0 0 0 11 0
95 0 0 0 0 18 0
96 0 0 0 0 83 0
97 0 0 0 0 31 0
98 0 0 0 0 10 0
99 0 0 0 0 58 0
DEPOT_SECTION
1 
-1
EOF
